% Auto-generated by scripts/generate_dzn.py
% problem_type   = polyominoes
% instance       = polyominoes_72
% source_json    = instances_json/0_low_blowup/polyominoes_72.json
% blowup         = 0.6142857142857143
% representation = NFA

mode = 1;

size = 6;
tiles = 4;
n_expressions = 4;
Q = 152;
S = 5;
q0 = [1, 1, 1, 1];
F = [{18}, {39}, {25}, {26}];
weights = [4, 1, 4, 9, 8, 1, 5, 5, 3, 5, 7, 4, 6, 6, 3, 9, 8, 7, 4, 5, 7, 9, 9, 5, 5, 10, 3, 6, 2, 2, 6, 5, 6, 6, 3, 2];
d_dfa = array3d(1..4, 1..152, 1..5, [
  % k = 1
    0, 0, 0, 0, 0,
    0, 0, 0, 0, 0,
    0, 0, 0, 0, 0,
    0, 0, 0, 0, 0,
    0, 0, 0, 0, 0,
    0, 0, 0, 0, 0,
    0, 0, 0, 0, 0,
    0, 0, 0, 0, 0,
    0, 0, 0, 0, 0,
    0, 0, 0, 0, 0,
    0, 0, 0, 0, 0,
    0, 0, 0, 0, 0,
    0, 0, 0, 0, 0,
    0, 0, 0, 0, 0,
    0, 0, 0, 0, 0,
    0, 0, 0, 0, 0,
    0, 0, 0, 0, 0,
    0, 0, 0, 0, 0,
    0, 0, 0, 0, 0,
    0, 0, 0, 0, 0,
    0, 0, 0, 0, 0,
    0, 0, 0, 0, 0,
    0, 0, 0, 0, 0,
    0, 0, 0, 0, 0,
    0, 0, 0, 0, 0,
    0, 0, 0, 0, 0,
    0, 0, 0, 0, 0,
    0, 0, 0, 0, 0,
    0, 0, 0, 0, 0,
    0, 0, 0, 0, 0,
    0, 0, 0, 0, 0,
    0, 0, 0, 0, 0,
    0, 0, 0, 0, 0,
    0, 0, 0, 0, 0,
    0, 0, 0, 0, 0,
    0, 0, 0, 0, 0,
    0, 0, 0, 0, 0,
    0, 0, 0, 0, 0,
    0, 0, 0, 0, 0,
    0, 0, 0, 0, 0,
    0, 0, 0, 0, 0,
    0, 0, 0, 0, 0,
    0, 0, 0, 0, 0,
    0, 0, 0, 0, 0,
    0, 0, 0, 0, 0,
    0, 0, 0, 0, 0,
    0, 0, 0, 0, 0,
    0, 0, 0, 0, 0,
    0, 0, 0, 0, 0,
    0, 0, 0, 0, 0,
    0, 0, 0, 0, 0,
    0, 0, 0, 0, 0,
    0, 0, 0, 0, 0,
    0, 0, 0, 0, 0,
    0, 0, 0, 0, 0,
    0, 0, 0, 0, 0,
    0, 0, 0, 0, 0,
    0, 0, 0, 0, 0,
    0, 0, 0, 0, 0,
    0, 0, 0, 0, 0,
    0, 0, 0, 0, 0,
    0, 0, 0, 0, 0,
    0, 0, 0, 0, 0,
    0, 0, 0, 0, 0,
    0, 0, 0, 0, 0,
    0, 0, 0, 0, 0,
    0, 0, 0, 0, 0,
    0, 0, 0, 0, 0,
    0, 0, 0, 0, 0,
    0, 0, 0, 0, 0,
    0, 0, 0, 0, 0,
    0, 0, 0, 0, 0,
    0, 0, 0, 0, 0,
    0, 0, 0, 0, 0,
    0, 0, 0, 0, 0,
    0, 0, 0, 0, 0,
    0, 0, 0, 0, 0,
    0, 0, 0, 0, 0,
    0, 0, 0, 0, 0,
    0, 0, 0, 0, 0,
    0, 0, 0, 0, 0,
    0, 0, 0, 0, 0,
    0, 0, 0, 0, 0,
    0, 0, 0, 0, 0,
    0, 0, 0, 0, 0,
    0, 0, 0, 0, 0,
    0, 0, 0, 0, 0,
    0, 0, 0, 0, 0,
    0, 0, 0, 0, 0,
    0, 0, 0, 0, 0,
    0, 0, 0, 0, 0,
    0, 0, 0, 0, 0,
    0, 0, 0, 0, 0,
    0, 0, 0, 0, 0,
    0, 0, 0, 0, 0,
    0, 0, 0, 0, 0,
    0, 0, 0, 0, 0,
    0, 0, 0, 0, 0,
    0, 0, 0, 0, 0,
    0, 0, 0, 0, 0,
    0, 0, 0, 0, 0,
    0, 0, 0, 0, 0,
    0, 0, 0, 0, 0,
    0, 0, 0, 0, 0,
    0, 0, 0, 0, 0,
    0, 0, 0, 0, 0,
    0, 0, 0, 0, 0,
    0, 0, 0, 0, 0,
    0, 0, 0, 0, 0,
    0, 0, 0, 0, 0,
    0, 0, 0, 0, 0,
    0, 0, 0, 0, 0,
    0, 0, 0, 0, 0,
    0, 0, 0, 0, 0,
    0, 0, 0, 0, 0,
    0, 0, 0, 0, 0,
    0, 0, 0, 0, 0,
    0, 0, 0, 0, 0,
    0, 0, 0, 0, 0,
    0, 0, 0, 0, 0,
    0, 0, 0, 0, 0,
    0, 0, 0, 0, 0,
    0, 0, 0, 0, 0,
    0, 0, 0, 0, 0,
    0, 0, 0, 0, 0,
    0, 0, 0, 0, 0,
    0, 0, 0, 0, 0,
    0, 0, 0, 0, 0,
    0, 0, 0, 0, 0,
    0, 0, 0, 0, 0,
    0, 0, 0, 0, 0,
    0, 0, 0, 0, 0,
    0, 0, 0, 0, 0,
    0, 0, 0, 0, 0,
    0, 0, 0, 0, 0,
    0, 0, 0, 0, 0,
    0, 0, 0, 0, 0,
    0, 0, 0, 0, 0,
    0, 0, 0, 0, 0,
    0, 0, 0, 0, 0,
    0, 0, 0, 0, 0,
    0, 0, 0, 0, 0,
    0, 0, 0, 0, 0,
    0, 0, 0, 0, 0,
    0, 0, 0, 0, 0,
    0, 0, 0, 0, 0,
    0, 0, 0, 0, 0,
    0, 0, 0, 0, 0,
    0, 0, 0, 0, 0,
    0, 0, 0, 0, 0,
    0, 0, 0, 0, 0,
    0, 0, 0, 0, 0,

  % k = 2
    0, 0, 0, 0, 0,
    0, 0, 0, 0, 0,
    0, 0, 0, 0, 0,
    0, 0, 0, 0, 0,
    0, 0, 0, 0, 0,
    0, 0, 0, 0, 0,
    0, 0, 0, 0, 0,
    0, 0, 0, 0, 0,
    0, 0, 0, 0, 0,
    0, 0, 0, 0, 0,
    0, 0, 0, 0, 0,
    0, 0, 0, 0, 0,
    0, 0, 0, 0, 0,
    0, 0, 0, 0, 0,
    0, 0, 0, 0, 0,
    0, 0, 0, 0, 0,
    0, 0, 0, 0, 0,
    0, 0, 0, 0, 0,
    0, 0, 0, 0, 0,
    0, 0, 0, 0, 0,
    0, 0, 0, 0, 0,
    0, 0, 0, 0, 0,
    0, 0, 0, 0, 0,
    0, 0, 0, 0, 0,
    0, 0, 0, 0, 0,
    0, 0, 0, 0, 0,
    0, 0, 0, 0, 0,
    0, 0, 0, 0, 0,
    0, 0, 0, 0, 0,
    0, 0, 0, 0, 0,
    0, 0, 0, 0, 0,
    0, 0, 0, 0, 0,
    0, 0, 0, 0, 0,
    0, 0, 0, 0, 0,
    0, 0, 0, 0, 0,
    0, 0, 0, 0, 0,
    0, 0, 0, 0, 0,
    0, 0, 0, 0, 0,
    0, 0, 0, 0, 0,
    0, 0, 0, 0, 0,
    0, 0, 0, 0, 0,
    0, 0, 0, 0, 0,
    0, 0, 0, 0, 0,
    0, 0, 0, 0, 0,
    0, 0, 0, 0, 0,
    0, 0, 0, 0, 0,
    0, 0, 0, 0, 0,
    0, 0, 0, 0, 0,
    0, 0, 0, 0, 0,
    0, 0, 0, 0, 0,
    0, 0, 0, 0, 0,
    0, 0, 0, 0, 0,
    0, 0, 0, 0, 0,
    0, 0, 0, 0, 0,
    0, 0, 0, 0, 0,
    0, 0, 0, 0, 0,
    0, 0, 0, 0, 0,
    0, 0, 0, 0, 0,
    0, 0, 0, 0, 0,
    0, 0, 0, 0, 0,
    0, 0, 0, 0, 0,
    0, 0, 0, 0, 0,
    0, 0, 0, 0, 0,
    0, 0, 0, 0, 0,
    0, 0, 0, 0, 0,
    0, 0, 0, 0, 0,
    0, 0, 0, 0, 0,
    0, 0, 0, 0, 0,
    0, 0, 0, 0, 0,
    0, 0, 0, 0, 0,
    0, 0, 0, 0, 0,
    0, 0, 0, 0, 0,
    0, 0, 0, 0, 0,
    0, 0, 0, 0, 0,
    0, 0, 0, 0, 0,
    0, 0, 0, 0, 0,
    0, 0, 0, 0, 0,
    0, 0, 0, 0, 0,
    0, 0, 0, 0, 0,
    0, 0, 0, 0, 0,
    0, 0, 0, 0, 0,
    0, 0, 0, 0, 0,
    0, 0, 0, 0, 0,
    0, 0, 0, 0, 0,
    0, 0, 0, 0, 0,
    0, 0, 0, 0, 0,
    0, 0, 0, 0, 0,
    0, 0, 0, 0, 0,
    0, 0, 0, 0, 0,
    0, 0, 0, 0, 0,
    0, 0, 0, 0, 0,
    0, 0, 0, 0, 0,
    0, 0, 0, 0, 0,
    0, 0, 0, 0, 0,
    0, 0, 0, 0, 0,
    0, 0, 0, 0, 0,
    0, 0, 0, 0, 0,
    0, 0, 0, 0, 0,
    0, 0, 0, 0, 0,
    0, 0, 0, 0, 0,
    0, 0, 0, 0, 0,
    0, 0, 0, 0, 0,
    0, 0, 0, 0, 0,
    0, 0, 0, 0, 0,
    0, 0, 0, 0, 0,
    0, 0, 0, 0, 0,
    0, 0, 0, 0, 0,
    0, 0, 0, 0, 0,
    0, 0, 0, 0, 0,
    0, 0, 0, 0, 0,
    0, 0, 0, 0, 0,
    0, 0, 0, 0, 0,
    0, 0, 0, 0, 0,
    0, 0, 0, 0, 0,
    0, 0, 0, 0, 0,
    0, 0, 0, 0, 0,
    0, 0, 0, 0, 0,
    0, 0, 0, 0, 0,
    0, 0, 0, 0, 0,
    0, 0, 0, 0, 0,
    0, 0, 0, 0, 0,
    0, 0, 0, 0, 0,
    0, 0, 0, 0, 0,
    0, 0, 0, 0, 0,
    0, 0, 0, 0, 0,
    0, 0, 0, 0, 0,
    0, 0, 0, 0, 0,
    0, 0, 0, 0, 0,
    0, 0, 0, 0, 0,
    0, 0, 0, 0, 0,
    0, 0, 0, 0, 0,
    0, 0, 0, 0, 0,
    0, 0, 0, 0, 0,
    0, 0, 0, 0, 0,
    0, 0, 0, 0, 0,
    0, 0, 0, 0, 0,
    0, 0, 0, 0, 0,
    0, 0, 0, 0, 0,
    0, 0, 0, 0, 0,
    0, 0, 0, 0, 0,
    0, 0, 0, 0, 0,
    0, 0, 0, 0, 0,
    0, 0, 0, 0, 0,
    0, 0, 0, 0, 0,
    0, 0, 0, 0, 0,
    0, 0, 0, 0, 0,
    0, 0, 0, 0, 0,
    0, 0, 0, 0, 0,
    0, 0, 0, 0, 0,
    0, 0, 0, 0, 0,
    0, 0, 0, 0, 0,
    0, 0, 0, 0, 0,

  % k = 3
    0, 0, 0, 0, 0,
    0, 0, 0, 0, 0,
    0, 0, 0, 0, 0,
    0, 0, 0, 0, 0,
    0, 0, 0, 0, 0,
    0, 0, 0, 0, 0,
    0, 0, 0, 0, 0,
    0, 0, 0, 0, 0,
    0, 0, 0, 0, 0,
    0, 0, 0, 0, 0,
    0, 0, 0, 0, 0,
    0, 0, 0, 0, 0,
    0, 0, 0, 0, 0,
    0, 0, 0, 0, 0,
    0, 0, 0, 0, 0,
    0, 0, 0, 0, 0,
    0, 0, 0, 0, 0,
    0, 0, 0, 0, 0,
    0, 0, 0, 0, 0,
    0, 0, 0, 0, 0,
    0, 0, 0, 0, 0,
    0, 0, 0, 0, 0,
    0, 0, 0, 0, 0,
    0, 0, 0, 0, 0,
    0, 0, 0, 0, 0,
    0, 0, 0, 0, 0,
    0, 0, 0, 0, 0,
    0, 0, 0, 0, 0,
    0, 0, 0, 0, 0,
    0, 0, 0, 0, 0,
    0, 0, 0, 0, 0,
    0, 0, 0, 0, 0,
    0, 0, 0, 0, 0,
    0, 0, 0, 0, 0,
    0, 0, 0, 0, 0,
    0, 0, 0, 0, 0,
    0, 0, 0, 0, 0,
    0, 0, 0, 0, 0,
    0, 0, 0, 0, 0,
    0, 0, 0, 0, 0,
    0, 0, 0, 0, 0,
    0, 0, 0, 0, 0,
    0, 0, 0, 0, 0,
    0, 0, 0, 0, 0,
    0, 0, 0, 0, 0,
    0, 0, 0, 0, 0,
    0, 0, 0, 0, 0,
    0, 0, 0, 0, 0,
    0, 0, 0, 0, 0,
    0, 0, 0, 0, 0,
    0, 0, 0, 0, 0,
    0, 0, 0, 0, 0,
    0, 0, 0, 0, 0,
    0, 0, 0, 0, 0,
    0, 0, 0, 0, 0,
    0, 0, 0, 0, 0,
    0, 0, 0, 0, 0,
    0, 0, 0, 0, 0,
    0, 0, 0, 0, 0,
    0, 0, 0, 0, 0,
    0, 0, 0, 0, 0,
    0, 0, 0, 0, 0,
    0, 0, 0, 0, 0,
    0, 0, 0, 0, 0,
    0, 0, 0, 0, 0,
    0, 0, 0, 0, 0,
    0, 0, 0, 0, 0,
    0, 0, 0, 0, 0,
    0, 0, 0, 0, 0,
    0, 0, 0, 0, 0,
    0, 0, 0, 0, 0,
    0, 0, 0, 0, 0,
    0, 0, 0, 0, 0,
    0, 0, 0, 0, 0,
    0, 0, 0, 0, 0,
    0, 0, 0, 0, 0,
    0, 0, 0, 0, 0,
    0, 0, 0, 0, 0,
    0, 0, 0, 0, 0,
    0, 0, 0, 0, 0,
    0, 0, 0, 0, 0,
    0, 0, 0, 0, 0,
    0, 0, 0, 0, 0,
    0, 0, 0, 0, 0,
    0, 0, 0, 0, 0,
    0, 0, 0, 0, 0,
    0, 0, 0, 0, 0,
    0, 0, 0, 0, 0,
    0, 0, 0, 0, 0,
    0, 0, 0, 0, 0,
    0, 0, 0, 0, 0,
    0, 0, 0, 0, 0,
    0, 0, 0, 0, 0,
    0, 0, 0, 0, 0,
    0, 0, 0, 0, 0,
    0, 0, 0, 0, 0,
    0, 0, 0, 0, 0,
    0, 0, 0, 0, 0,
    0, 0, 0, 0, 0,
    0, 0, 0, 0, 0,
    0, 0, 0, 0, 0,
    0, 0, 0, 0, 0,
    0, 0, 0, 0, 0,
    0, 0, 0, 0, 0,
    0, 0, 0, 0, 0,
    0, 0, 0, 0, 0,
    0, 0, 0, 0, 0,
    0, 0, 0, 0, 0,
    0, 0, 0, 0, 0,
    0, 0, 0, 0, 0,
    0, 0, 0, 0, 0,
    0, 0, 0, 0, 0,
    0, 0, 0, 0, 0,
    0, 0, 0, 0, 0,
    0, 0, 0, 0, 0,
    0, 0, 0, 0, 0,
    0, 0, 0, 0, 0,
    0, 0, 0, 0, 0,
    0, 0, 0, 0, 0,
    0, 0, 0, 0, 0,
    0, 0, 0, 0, 0,
    0, 0, 0, 0, 0,
    0, 0, 0, 0, 0,
    0, 0, 0, 0, 0,
    0, 0, 0, 0, 0,
    0, 0, 0, 0, 0,
    0, 0, 0, 0, 0,
    0, 0, 0, 0, 0,
    0, 0, 0, 0, 0,
    0, 0, 0, 0, 0,
    0, 0, 0, 0, 0,
    0, 0, 0, 0, 0,
    0, 0, 0, 0, 0,
    0, 0, 0, 0, 0,
    0, 0, 0, 0, 0,
    0, 0, 0, 0, 0,
    0, 0, 0, 0, 0,
    0, 0, 0, 0, 0,
    0, 0, 0, 0, 0,
    0, 0, 0, 0, 0,
    0, 0, 0, 0, 0,
    0, 0, 0, 0, 0,
    0, 0, 0, 0, 0,
    0, 0, 0, 0, 0,
    0, 0, 0, 0, 0,
    0, 0, 0, 0, 0,
    0, 0, 0, 0, 0,
    0, 0, 0, 0, 0,
    0, 0, 0, 0, 0,
    0, 0, 0, 0, 0,
    0, 0, 0, 0, 0,
    0, 0, 0, 0, 0,

  % k = 4
    0, 0, 0, 0, 0,
    0, 0, 0, 0, 0,
    0, 0, 0, 0, 0,
    0, 0, 0, 0, 0,
    0, 0, 0, 0, 0,
    0, 0, 0, 0, 0,
    0, 0, 0, 0, 0,
    0, 0, 0, 0, 0,
    0, 0, 0, 0, 0,
    0, 0, 0, 0, 0,
    0, 0, 0, 0, 0,
    0, 0, 0, 0, 0,
    0, 0, 0, 0, 0,
    0, 0, 0, 0, 0,
    0, 0, 0, 0, 0,
    0, 0, 0, 0, 0,
    0, 0, 0, 0, 0,
    0, 0, 0, 0, 0,
    0, 0, 0, 0, 0,
    0, 0, 0, 0, 0,
    0, 0, 0, 0, 0,
    0, 0, 0, 0, 0,
    0, 0, 0, 0, 0,
    0, 0, 0, 0, 0,
    0, 0, 0, 0, 0,
    0, 0, 0, 0, 0,
    0, 0, 0, 0, 0,
    0, 0, 0, 0, 0,
    0, 0, 0, 0, 0,
    0, 0, 0, 0, 0,
    0, 0, 0, 0, 0,
    0, 0, 0, 0, 0,
    0, 0, 0, 0, 0,
    0, 0, 0, 0, 0,
    0, 0, 0, 0, 0,
    0, 0, 0, 0, 0,
    0, 0, 0, 0, 0,
    0, 0, 0, 0, 0,
    0, 0, 0, 0, 0,
    0, 0, 0, 0, 0,
    0, 0, 0, 0, 0,
    0, 0, 0, 0, 0,
    0, 0, 0, 0, 0,
    0, 0, 0, 0, 0,
    0, 0, 0, 0, 0,
    0, 0, 0, 0, 0,
    0, 0, 0, 0, 0,
    0, 0, 0, 0, 0,
    0, 0, 0, 0, 0,
    0, 0, 0, 0, 0,
    0, 0, 0, 0, 0,
    0, 0, 0, 0, 0,
    0, 0, 0, 0, 0,
    0, 0, 0, 0, 0,
    0, 0, 0, 0, 0,
    0, 0, 0, 0, 0,
    0, 0, 0, 0, 0,
    0, 0, 0, 0, 0,
    0, 0, 0, 0, 0,
    0, 0, 0, 0, 0,
    0, 0, 0, 0, 0,
    0, 0, 0, 0, 0,
    0, 0, 0, 0, 0,
    0, 0, 0, 0, 0,
    0, 0, 0, 0, 0,
    0, 0, 0, 0, 0,
    0, 0, 0, 0, 0,
    0, 0, 0, 0, 0,
    0, 0, 0, 0, 0,
    0, 0, 0, 0, 0,
    0, 0, 0, 0, 0,
    0, 0, 0, 0, 0,
    0, 0, 0, 0, 0,
    0, 0, 0, 0, 0,
    0, 0, 0, 0, 0,
    0, 0, 0, 0, 0,
    0, 0, 0, 0, 0,
    0, 0, 0, 0, 0,
    0, 0, 0, 0, 0,
    0, 0, 0, 0, 0,
    0, 0, 0, 0, 0,
    0, 0, 0, 0, 0,
    0, 0, 0, 0, 0,
    0, 0, 0, 0, 0,
    0, 0, 0, 0, 0,
    0, 0, 0, 0, 0,
    0, 0, 0, 0, 0,
    0, 0, 0, 0, 0,
    0, 0, 0, 0, 0,
    0, 0, 0, 0, 0,
    0, 0, 0, 0, 0,
    0, 0, 0, 0, 0,
    0, 0, 0, 0, 0,
    0, 0, 0, 0, 0,
    0, 0, 0, 0, 0,
    0, 0, 0, 0, 0,
    0, 0, 0, 0, 0,
    0, 0, 0, 0, 0,
    0, 0, 0, 0, 0,
    0, 0, 0, 0, 0,
    0, 0, 0, 0, 0,
    0, 0, 0, 0, 0,
    0, 0, 0, 0, 0,
    0, 0, 0, 0, 0,
    0, 0, 0, 0, 0,
    0, 0, 0, 0, 0,
    0, 0, 0, 0, 0,
    0, 0, 0, 0, 0,
    0, 0, 0, 0, 0,
    0, 0, 0, 0, 0,
    0, 0, 0, 0, 0,
    0, 0, 0, 0, 0,
    0, 0, 0, 0, 0,
    0, 0, 0, 0, 0,
    0, 0, 0, 0, 0,
    0, 0, 0, 0, 0,
    0, 0, 0, 0, 0,
    0, 0, 0, 0, 0,
    0, 0, 0, 0, 0,
    0, 0, 0, 0, 0,
    0, 0, 0, 0, 0,
    0, 0, 0, 0, 0,
    0, 0, 0, 0, 0,
    0, 0, 0, 0, 0,
    0, 0, 0, 0, 0,
    0, 0, 0, 0, 0,
    0, 0, 0, 0, 0,
    0, 0, 0, 0, 0,
    0, 0, 0, 0, 0,
    0, 0, 0, 0, 0,
    0, 0, 0, 0, 0,
    0, 0, 0, 0, 0,
    0, 0, 0, 0, 0,
    0, 0, 0, 0, 0,
    0, 0, 0, 0, 0,
    0, 0, 0, 0, 0,
    0, 0, 0, 0, 0,
    0, 0, 0, 0, 0,
    0, 0, 0, 0, 0,
    0, 0, 0, 0, 0,
    0, 0, 0, 0, 0,
    0, 0, 0, 0, 0,
    0, 0, 0, 0, 0,
    0, 0, 0, 0, 0,
    0, 0, 0, 0, 0,
    0, 0, 0, 0, 0,
    0, 0, 0, 0, 0,
    0, 0, 0, 0, 0,
    0, 0, 0, 0, 0,
    0, 0, 0, 0, 0,
    0, 0, 0, 0, 0,
    0, 0, 0, 0, 0
]);
d_nfa = array3d(1..4, 1..152, 1..5, [
  % k = 1
    {3, 20}, {2, 19}, {2, 19}, {2, 19}, {2, 19},
    {3}, {2}, {2}, {2}, {2},
    {4}, {}, {}, {}, {},
    {}, {5}, {5}, {5}, {5},
    {}, {6}, {6}, {6}, {6},
    {}, {7}, {7}, {7}, {7},
    {}, {8}, {8}, {8}, {8},
    {}, {9}, {9}, {9}, {9},
    {10}, {}, {}, {}, {},
    {11}, {}, {}, {}, {},
    {}, {12}, {12}, {12}, {12},
    {}, {13}, {13}, {13}, {13},
    {}, {14}, {14}, {14}, {14},
    {}, {15}, {15}, {15}, {15},
    {}, {16}, {16}, {16}, {16},
    {17}, {}, {}, {}, {},
    {18}, {}, {}, {}, {},
    {}, {18}, {18}, {18}, {18},
    {20}, {19}, {19}, {19}, {19},
    {21}, {}, {}, {}, {},
    {22}, {}, {}, {}, {},
    {}, {23}, {23}, {23}, {23},
    {}, {24}, {24}, {24}, {24},
    {}, {25}, {25}, {25}, {25},
    {}, {26}, {26}, {26}, {26},
    {16}, {}, {}, {}, {},
    {}, {}, {}, {}, {},
    {}, {}, {}, {}, {},
    {}, {}, {}, {}, {},
    {}, {}, {}, {}, {},
    {}, {}, {}, {}, {},
    {}, {}, {}, {}, {},
    {}, {}, {}, {}, {},
    {}, {}, {}, {}, {},
    {}, {}, {}, {}, {},
    {}, {}, {}, {}, {},
    {}, {}, {}, {}, {},
    {}, {}, {}, {}, {},
    {}, {}, {}, {}, {},
    {}, {}, {}, {}, {},
    {}, {}, {}, {}, {},
    {}, {}, {}, {}, {},
    {}, {}, {}, {}, {},
    {}, {}, {}, {}, {},
    {}, {}, {}, {}, {},
    {}, {}, {}, {}, {},
    {}, {}, {}, {}, {},
    {}, {}, {}, {}, {},
    {}, {}, {}, {}, {},
    {}, {}, {}, {}, {},
    {}, {}, {}, {}, {},
    {}, {}, {}, {}, {},
    {}, {}, {}, {}, {},
    {}, {}, {}, {}, {},
    {}, {}, {}, {}, {},
    {}, {}, {}, {}, {},
    {}, {}, {}, {}, {},
    {}, {}, {}, {}, {},
    {}, {}, {}, {}, {},
    {}, {}, {}, {}, {},
    {}, {}, {}, {}, {},
    {}, {}, {}, {}, {},
    {}, {}, {}, {}, {},
    {}, {}, {}, {}, {},
    {}, {}, {}, {}, {},
    {}, {}, {}, {}, {},
    {}, {}, {}, {}, {},
    {}, {}, {}, {}, {},
    {}, {}, {}, {}, {},
    {}, {}, {}, {}, {},
    {}, {}, {}, {}, {},
    {}, {}, {}, {}, {},
    {}, {}, {}, {}, {},
    {}, {}, {}, {}, {},
    {}, {}, {}, {}, {},
    {}, {}, {}, {}, {},
    {}, {}, {}, {}, {},
    {}, {}, {}, {}, {},
    {}, {}, {}, {}, {},
    {}, {}, {}, {}, {},
    {}, {}, {}, {}, {},
    {}, {}, {}, {}, {},
    {}, {}, {}, {}, {},
    {}, {}, {}, {}, {},
    {}, {}, {}, {}, {},
    {}, {}, {}, {}, {},
    {}, {}, {}, {}, {},
    {}, {}, {}, {}, {},
    {}, {}, {}, {}, {},
    {}, {}, {}, {}, {},
    {}, {}, {}, {}, {},
    {}, {}, {}, {}, {},
    {}, {}, {}, {}, {},
    {}, {}, {}, {}, {},
    {}, {}, {}, {}, {},
    {}, {}, {}, {}, {},
    {}, {}, {}, {}, {},
    {}, {}, {}, {}, {},
    {}, {}, {}, {}, {},
    {}, {}, {}, {}, {},
    {}, {}, {}, {}, {},
    {}, {}, {}, {}, {},
    {}, {}, {}, {}, {},
    {}, {}, {}, {}, {},
    {}, {}, {}, {}, {},
    {}, {}, {}, {}, {},
    {}, {}, {}, {}, {},
    {}, {}, {}, {}, {},
    {}, {}, {}, {}, {},
    {}, {}, {}, {}, {},
    {}, {}, {}, {}, {},
    {}, {}, {}, {}, {},
    {}, {}, {}, {}, {},
    {}, {}, {}, {}, {},
    {}, {}, {}, {}, {},
    {}, {}, {}, {}, {},
    {}, {}, {}, {}, {},
    {}, {}, {}, {}, {},
    {}, {}, {}, {}, {},
    {}, {}, {}, {}, {},
    {}, {}, {}, {}, {},
    {}, {}, {}, {}, {},
    {}, {}, {}, {}, {},
    {}, {}, {}, {}, {},
    {}, {}, {}, {}, {},
    {}, {}, {}, {}, {},
    {}, {}, {}, {}, {},
    {}, {}, {}, {}, {},
    {}, {}, {}, {}, {},
    {}, {}, {}, {}, {},
    {}, {}, {}, {}, {},
    {}, {}, {}, {}, {},
    {}, {}, {}, {}, {},
    {}, {}, {}, {}, {},
    {}, {}, {}, {}, {},
    {}, {}, {}, {}, {},
    {}, {}, {}, {}, {},
    {}, {}, {}, {}, {},
    {}, {}, {}, {}, {},
    {}, {}, {}, {}, {},
    {}, {}, {}, {}, {},
    {}, {}, {}, {}, {},
    {}, {}, {}, {}, {},
    {}, {}, {}, {}, {},
    {}, {}, {}, {}, {},
    {}, {}, {}, {}, {},
    {}, {}, {}, {}, {},
    {}, {}, {}, {}, {},
    {}, {}, {}, {}, {},
    {}, {}, {}, {}, {},
    {}, {}, {}, {}, {},
    {}, {}, {}, {}, {},

  % k = 2
    {2, 40, 57, 92, 103, 127, 129, 140}, {3, 41, 58, 93, 104, 128, 130, 141}, {2, 40, 57, 92, 103, 127, 129, 140}, {2, 40, 57, 92, 103, 127, 129, 140}, {2, 40, 57, 92, 103, 127, 129, 140},
    {2}, {3}, {2}, {2}, {2},
    {}, {4}, {}, {}, {},
    {5}, {}, {5}, {5}, {5},
    {6}, {}, {6}, {6}, {6},
    {7}, {}, {7}, {7}, {7},
    {8}, {}, {8}, {8}, {8},
    {9}, {}, {9}, {9}, {9},
    {}, {10}, {}, {}, {},
    {}, {11}, {}, {}, {},
    {12}, {}, {12}, {12}, {12},
    {13}, {}, {13}, {13}, {13},
    {14}, {}, {14}, {14}, {14},
    {15}, {}, {15}, {15}, {15},
    {16}, {}, {16}, {16}, {16},
    {}, {17}, {}, {}, {},
    {}, {18}, {}, {}, {},
    {19}, {}, {19}, {19}, {19},
    {20}, {}, {20}, {20}, {20},
    {21}, {}, {21}, {21}, {21},
    {22}, {}, {22}, {22}, {22},
    {23}, {}, {23}, {23}, {23},
    {}, {24}, {}, {}, {},
    {}, {25}, {}, {}, {},
    {26}, {}, {26}, {26}, {26},
    {27}, {}, {27}, {27}, {27},
    {28}, {}, {28}, {28}, {28},
    {29}, {}, {29}, {29}, {29},
    {}, {30}, {}, {}, {},
    {}, {31}, {}, {}, {},
    {}, {32}, {}, {}, {},
    {33}, {}, {33}, {33}, {33},
    {34}, {}, {34}, {34}, {34},
    {35}, {}, {35}, {35}, {35},
    {36}, {}, {36}, {36}, {36},
    {}, {37}, {}, {}, {},
    {}, {38}, {}, {}, {},
    {}, {39}, {}, {}, {},
    {39}, {}, {39}, {39}, {39},
    {40}, {41}, {40}, {40}, {40},
    {}, {42}, {}, {}, {},
    {43}, {}, {43}, {43}, {43},
    {44}, {}, {44}, {44}, {44},
    {45}, {}, {45}, {45}, {45},
    {46}, {}, {46}, {46}, {46},
    {47}, {}, {47}, {47}, {47},
    {}, {48}, {}, {}, {},
    {}, {49}, {}, {}, {},
    {}, {50}, {}, {}, {},
    {}, {51}, {}, {}, {},
    {}, {52}, {}, {}, {},
    {}, {53}, {}, {}, {},
    {54}, {}, {54}, {54}, {54},
    {}, {55}, {}, {}, {},
    {}, {56}, {}, {}, {},
    {}, {36}, {}, {}, {},
    {57}, {58}, {57}, {57}, {57},
    {}, {59}, {}, {}, {},
    {}, {60}, {}, {}, {},
    {61}, {}, {61}, {61}, {61},
    {62}, {}, {62}, {62}, {62},
    {63}, {}, {63}, {63}, {63},
    {64}, {}, {64}, {64}, {64},
    {}, {65}, {}, {}, {},
    {}, {66}, {}, {}, {},
    {}, {67}, {}, {}, {},
    {68}, {}, {68}, {68}, {68},
    {69}, {}, {69}, {69}, {69},
    {70}, {}, {70}, {70}, {70},
    {71}, {}, {71}, {71}, {71},
    {}, {72}, {}, {}, {},
    {}, {73}, {}, {}, {},
    {74}, {}, {74}, {74}, {74},
    {75}, {}, {75}, {75}, {75},
    {76}, {}, {76}, {76}, {76},
    {77}, {}, {77}, {77}, {77},
    {78}, {}, {78}, {78}, {78},
    {}, {79}, {}, {}, {},
    {}, {80}, {}, {}, {},
    {81}, {}, {81}, {81}, {81},
    {82}, {}, {82}, {82}, {82},
    {83}, {}, {83}, {83}, {83},
    {84}, {}, {84}, {84}, {84},
    {85}, {}, {85}, {85}, {85},
    {}, {86}, {}, {}, {},
    {}, {87}, {}, {}, {},
    {88}, {}, {88}, {88}, {88},
    {89}, {}, {89}, {89}, {89},
    {90}, {}, {90}, {90}, {90},
    {91}, {}, {91}, {91}, {91},
    {37}, {}, {37}, {37}, {37},
    {92}, {93}, {92}, {92}, {92},
    {}, {94}, {}, {}, {},
    {}, {95}, {}, {}, {},
    {}, {96}, {}, {}, {},
    {}, {97}, {}, {}, {},
    {}, {98}, {}, {}, {},
    {99}, {}, {99}, {99}, {99},
    {}, {100}, {}, {}, {},
    {}, {101}, {}, {}, {},
    {}, {102}, {}, {}, {},
    {}, {85}, {}, {}, {},
    {103}, {104}, {103}, {103}, {103},
    {}, {105}, {}, {}, {},
    {106}, {}, {106}, {106}, {106},
    {107}, {}, {107}, {107}, {107},
    {108}, {}, {108}, {108}, {108},
    {109}, {}, {109}, {109}, {109},
    {110}, {}, {110}, {110}, {110},
    {}, {111}, {}, {}, {},
    {}, {112}, {}, {}, {},
    {113}, {}, {113}, {113}, {113},
    {114}, {}, {114}, {114}, {114},
    {115}, {}, {115}, {115}, {115},
    {116}, {}, {116}, {116}, {116},
    {117}, {}, {117}, {117}, {117},
    {}, {118}, {}, {}, {},
    {}, {119}, {}, {}, {},
    {120}, {}, {120}, {120}, {120},
    {121}, {}, {121}, {121}, {121},
    {122}, {}, {122}, {122}, {122},
    {123}, {}, {123}, {123}, {123},
    {124}, {}, {124}, {124}, {124},
    {}, {125}, {}, {}, {},
    {}, {126}, {}, {}, {},
    {25}, {}, {25}, {25}, {25},
    {127}, {128}, {127}, {127}, {127},
    {}, {46}, {}, {}, {},
    {129}, {130}, {129}, {129}, {129},
    {}, {131}, {}, {}, {},
    {}, {132}, {}, {}, {},
    {133}, {}, {133}, {133}, {133},
    {134}, {}, {134}, {134}, {134},
    {135}, {}, {135}, {135}, {135},
    {136}, {}, {136}, {136}, {136},
    {}, {137}, {}, {}, {},
    {}, {138}, {}, {}, {},
    {}, {139}, {}, {}, {},
    {67}, {}, {67}, {67}, {67},
    {140}, {141}, {140}, {140}, {140},
    {}, {142}, {}, {}, {},
    {}, {143}, {}, {}, {},
    {}, {144}, {}, {}, {},
    {}, {145}, {}, {}, {},
    {}, {146}, {}, {}, {},
    {147}, {}, {147}, {147}, {147},
    {}, {148}, {}, {}, {},
    {}, {149}, {}, {}, {},
    {}, {150}, {}, {}, {},
    {}, {151}, {}, {}, {},
    {}, {152}, {}, {}, {},
    {}, {91}, {}, {}, {},

  % k = 3
    {2, 26, 33, 55, 76, 87, 98, 115}, {2, 26, 33, 55, 76, 87, 98, 115}, {3, 27, 34, 56, 77, 88, 99, 116}, {2, 26, 33, 55, 76, 87, 98, 115}, {2, 26, 33, 55, 76, 87, 98, 115},
    {2}, {2}, {3}, {2}, {2},
    {}, {}, {4}, {}, {},
    {}, {}, {5}, {}, {},
    {}, {}, {6}, {}, {},
    {7}, {7}, {}, {7}, {7},
    {8}, {8}, {}, {8}, {8},
    {9}, {9}, {}, {9}, {9},
    {}, {}, {10}, {}, {},
    {}, {}, {11}, {}, {},
    {12}, {12}, {}, {12}, {12},
    {13}, {13}, {}, {13}, {13},
    {14}, {14}, {}, {14}, {14},
    {15}, {15}, {}, {15}, {15},
    {16}, {16}, {}, {16}, {16},
    {17}, {17}, {}, {17}, {17},
    {}, {}, {18}, {}, {},
    {19}, {19}, {}, {19}, {19},
    {20}, {20}, {}, {20}, {20},
    {21}, {21}, {}, {21}, {21},
    {22}, {22}, {}, {22}, {22},
    {23}, {23}, {}, {23}, {23},
    {24}, {24}, {}, {24}, {24},
    {}, {}, {25}, {}, {},
    {25}, {25}, {}, {25}, {25},
    {26}, {26}, {27}, {26}, {26},
    {}, {}, {28}, {}, {},
    {29}, {29}, {}, {29}, {29},
    {30}, {30}, {}, {30}, {30},
    {31}, {31}, {}, {31}, {31},
    {}, {}, {32}, {}, {},
    {}, {}, {9}, {}, {},
    {33}, {33}, {34}, {33}, {33},
    {35}, {35}, {}, {35}, {35},
    {36}, {36}, {}, {36}, {36},
    {37}, {37}, {}, {37}, {37},
    {38}, {38}, {}, {38}, {38},
    {39}, {39}, {}, {39}, {39},
    {40}, {40}, {}, {40}, {40},
    {}, {}, {41}, {}, {},
    {42}, {42}, {}, {42}, {42},
    {43}, {43}, {}, {43}, {43},
    {44}, {44}, {}, {44}, {44},
    {45}, {45}, {}, {45}, {45},
    {46}, {46}, {}, {46}, {46},
    {47}, {47}, {}, {47}, {47},
    {}, {}, {48}, {}, {},
    {}, {}, {49}, {}, {},
    {50}, {50}, {}, {50}, {50},
    {51}, {51}, {}, {51}, {51},
    {52}, {52}, {}, {52}, {52},
    {}, {}, {53}, {}, {},
    {}, {}, {54}, {}, {},
    {}, {}, {24}, {}, {},
    {55}, {55}, {56}, {55}, {55},
    {57}, {57}, {}, {57}, {57},
    {58}, {58}, {}, {58}, {58},
    {59}, {59}, {}, {59}, {59},
    {60}, {60}, {}, {60}, {60},
    {61}, {61}, {}, {61}, {61},
    {62}, {62}, {}, {62}, {62},
    {}, {}, {63}, {}, {},
    {64}, {64}, {}, {64}, {64},
    {65}, {65}, {}, {65}, {65},
    {66}, {66}, {}, {66}, {66},
    {67}, {67}, {}, {67}, {67},
    {68}, {68}, {}, {68}, {68},
    {69}, {69}, {}, {69}, {69},
    {}, {}, {70}, {}, {},
    {}, {}, {71}, {}, {},
    {}, {}, {72}, {}, {},
    {}, {}, {73}, {}, {},
    {74}, {74}, {}, {74}, {74},
    {75}, {75}, {}, {75}, {75},
    {54}, {54}, {}, {54}, {54},
    {76}, {76}, {77}, {76}, {76},
    {}, {}, {78}, {}, {},
    {}, {}, {79}, {}, {},
    {}, {}, {80}, {}, {},
    {81}, {81}, {}, {81}, {81},
    {82}, {82}, {}, {82}, {82},
    {83}, {83}, {}, {83}, {83},
    {84}, {84}, {}, {84}, {84},
    {85}, {85}, {}, {85}, {85},
    {}, {}, {86}, {}, {},
    {}, {}, {12}, {}, {},
    {87}, {87}, {88}, {87}, {87},
    {}, {}, {89}, {}, {},
    {90}, {90}, {}, {90}, {90},
    {91}, {91}, {}, {91}, {91},
    {92}, {92}, {}, {92}, {92},
    {93}, {93}, {}, {93}, {93},
    {94}, {94}, {}, {94}, {94},
    {}, {}, {95}, {}, {},
    {}, {}, {96}, {}, {},
    {}, {}, {97}, {}, {},
    {}, {}, {14}, {}, {},
    {98}, {98}, {99}, {98}, {98},
    {100}, {100}, {}, {100}, {100},
    {101}, {101}, {}, {101}, {101},
    {102}, {102}, {}, {102}, {102},
    {103}, {103}, {}, {103}, {103},
    {104}, {104}, {}, {104}, {104},
    {105}, {105}, {}, {105}, {105},
    {}, {}, {106}, {}, {},
    {107}, {107}, {}, {107}, {107},
    {108}, {108}, {}, {108}, {108},
    {109}, {109}, {}, {109}, {109},
    {110}, {110}, {}, {110}, {110},
    {111}, {111}, {}, {111}, {111},
    {}, {}, {112}, {}, {},
    {}, {}, {113}, {}, {},
    {114}, {114}, {}, {114}, {114},
    {49}, {49}, {}, {49}, {49},
    {115}, {115}, {116}, {115}, {115},
    {117}, {117}, {}, {117}, {117},
    {118}, {118}, {}, {118}, {118},
    {119}, {119}, {}, {119}, {119},
    {120}, {120}, {}, {120}, {120},
    {121}, {121}, {}, {121}, {121},
    {122}, {122}, {}, {122}, {122},
    {}, {}, {123}, {}, {},
    {124}, {124}, {}, {124}, {124},
    {125}, {125}, {}, {125}, {125},
    {126}, {126}, {}, {126}, {126},
    {}, {}, {127}, {}, {},
    {}, {}, {128}, {}, {},
    {}, {}, {129}, {}, {},
    {}, {}, {130}, {}, {},
    {131}, {131}, {}, {131}, {131},
    {73}, {73}, {}, {73}, {73},
    {}, {}, {}, {}, {},
    {}, {}, {}, {}, {},
    {}, {}, {}, {}, {},
    {}, {}, {}, {}, {},
    {}, {}, {}, {}, {},
    {}, {}, {}, {}, {},
    {}, {}, {}, {}, {},
    {}, {}, {}, {}, {},
    {}, {}, {}, {}, {},
    {}, {}, {}, {}, {},
    {}, {}, {}, {}, {},
    {}, {}, {}, {}, {},
    {}, {}, {}, {}, {},
    {}, {}, {}, {}, {},
    {}, {}, {}, {}, {},
    {}, {}, {}, {}, {},
    {}, {}, {}, {}, {},
    {}, {}, {}, {}, {},
    {}, {}, {}, {}, {},
    {}, {}, {}, {}, {},
    {}, {}, {}, {}, {},

  % k = 4
    {2, 27, 41, 64, 77, 85, 91, 101}, {2, 27, 41, 64, 77, 85, 91, 101}, {2, 27, 41, 64, 77, 85, 91, 101}, {3, 28, 42, 65, 78, 86, 92, 102}, {2, 27, 41, 64, 77, 85, 91, 101},
    {2}, {2}, {2}, {3}, {2},
    {4}, {4}, {4}, {}, {4},
    {5}, {5}, {5}, {}, {5},
    {6}, {6}, {6}, {}, {6},
    {7}, {7}, {7}, {}, {7},
    {8}, {8}, {8}, {}, {8},
    {9}, {9}, {9}, {}, {9},
    {}, {}, {}, {10}, {},
    {11}, {11}, {11}, {}, {11},
    {12}, {12}, {12}, {}, {12},
    {13}, {13}, {13}, {}, {13},
    {14}, {14}, {14}, {}, {14},
    {15}, {15}, {15}, {}, {15},
    {16}, {16}, {16}, {}, {16},
    {}, {}, {}, {17}, {},
    {}, {}, {}, {18}, {},
    {}, {}, {}, {19}, {},
    {20}, {20}, {20}, {}, {20},
    {21}, {21}, {21}, {}, {21},
    {22}, {22}, {22}, {}, {22},
    {23}, {23}, {23}, {}, {23},
    {}, {}, {}, {24}, {},
    {}, {}, {}, {25}, {},
    {}, {}, {}, {26}, {},
    {26}, {26}, {26}, {}, {26},
    {27}, {27}, {27}, {28}, {27},
    {}, {}, {}, {29}, {},
    {}, {}, {}, {30}, {},
    {}, {}, {}, {31}, {},
    {32}, {32}, {32}, {}, {32},
    {33}, {33}, {33}, {}, {33},
    {34}, {34}, {34}, {}, {34},
    {}, {}, {}, {35}, {},
    {}, {}, {}, {36}, {},
    {37}, {37}, {37}, {}, {37},
    {38}, {38}, {38}, {}, {38},
    {39}, {39}, {39}, {}, {39},
    {40}, {40}, {40}, {}, {40},
    {24}, {24}, {24}, {}, {24},
    {41}, {41}, {41}, {42}, {41},
    {}, {}, {}, {43}, {},
    {}, {}, {}, {44}, {},
    {45}, {45}, {45}, {}, {45},
    {46}, {46}, {46}, {}, {46},
    {47}, {47}, {47}, {}, {47},
    {48}, {48}, {48}, {}, {48},
    {}, {}, {}, {49}, {},
    {}, {}, {}, {50}, {},
    {}, {}, {}, {51}, {},
    {52}, {52}, {52}, {}, {52},
    {53}, {53}, {53}, {}, {53},
    {54}, {54}, {54}, {}, {54},
    {55}, {55}, {55}, {}, {55},
    {56}, {56}, {56}, {}, {56},
    {57}, {57}, {57}, {}, {57},
    {}, {}, {}, {58}, {},
    {59}, {59}, {59}, {}, {59},
    {60}, {60}, {60}, {}, {60},
    {61}, {61}, {61}, {}, {61},
    {62}, {62}, {62}, {}, {62},
    {63}, {63}, {63}, {}, {63},
    {25}, {25}, {25}, {}, {25},
    {64}, {64}, {64}, {65}, {64},
    {}, {}, {}, {66}, {},
    {67}, {67}, {67}, {}, {67},
    {68}, {68}, {68}, {}, {68},
    {69}, {69}, {69}, {}, {69},
    {70}, {70}, {70}, {}, {70},
    {71}, {71}, {71}, {}, {71},
    {}, {}, {}, {72}, {},
    {}, {}, {}, {73}, {},
    {74}, {74}, {74}, {}, {74},
    {75}, {75}, {75}, {}, {75},
    {76}, {76}, {76}, {}, {76},
    {}, {}, {}, {23}, {},
    {77}, {77}, {77}, {78}, {77},
    {79}, {79}, {79}, {}, {79},
    {80}, {80}, {80}, {}, {80},
    {81}, {81}, {81}, {}, {81},
    {82}, {82}, {82}, {}, {82},
    {83}, {83}, {83}, {}, {83},
    {84}, {84}, {84}, {}, {84},
    {}, {}, {}, {12}, {},
    {85}, {85}, {85}, {86}, {85},
    {}, {}, {}, {87}, {},
    {}, {}, {}, {88}, {},
    {}, {}, {}, {89}, {},
    {90}, {90}, {90}, {}, {90},
    {31}, {31}, {31}, {}, {31},
    {91}, {91}, {91}, {92}, {91},
    {}, {}, {}, {93}, {},
    {}, {}, {}, {94}, {},
    {95}, {95}, {95}, {}, {95},
    {96}, {96}, {96}, {}, {96},
    {97}, {97}, {97}, {}, {97},
    {98}, {98}, {98}, {}, {98},
    {}, {}, {}, {99}, {},
    {}, {}, {}, {100}, {},
    {}, {}, {}, {53}, {},
    {101}, {101}, {101}, {102}, {101},
    {}, {}, {}, {103}, {},
    {104}, {104}, {104}, {}, {104},
    {105}, {105}, {105}, {}, {105},
    {106}, {106}, {106}, {}, {106},
    {107}, {107}, {107}, {}, {107},
    {108}, {108}, {108}, {}, {108},
    {}, {}, {}, {109}, {},
    {}, {}, {}, {110}, {},
    {111}, {111}, {111}, {}, {111},
    {73}, {73}, {73}, {}, {73},
    {}, {}, {}, {}, {},
    {}, {}, {}, {}, {},
    {}, {}, {}, {}, {},
    {}, {}, {}, {}, {},
    {}, {}, {}, {}, {},
    {}, {}, {}, {}, {},
    {}, {}, {}, {}, {},
    {}, {}, {}, {}, {},
    {}, {}, {}, {}, {},
    {}, {}, {}, {}, {},
    {}, {}, {}, {}, {},
    {}, {}, {}, {}, {},
    {}, {}, {}, {}, {},
    {}, {}, {}, {}, {},
    {}, {}, {}, {}, {},
    {}, {}, {}, {}, {},
    {}, {}, {}, {}, {},
    {}, {}, {}, {}, {},
    {}, {}, {}, {}, {},
    {}, {}, {}, {}, {},
    {}, {}, {}, {}, {},
    {}, {}, {}, {}, {},
    {}, {}, {}, {}, {},
    {}, {}, {}, {}, {},
    {}, {}, {}, {}, {},
    {}, {}, {}, {}, {},
    {}, {}, {}, {}, {},
    {}, {}, {}, {}, {},
    {}, {}, {}, {}, {},
    {}, {}, {}, {}, {},
    {}, {}, {}, {}, {},
    {}, {}, {}, {}, {},
    {}, {}, {}, {}, {},
    {}, {}, {}, {}, {},
    {}, {}, {}, {}, {},
    {}, {}, {}, {}, {},
    {}, {}, {}, {}, {},
    {}, {}, {}, {}, {},
    {}, {}, {}, {}, {},
    {}, {}, {}, {}, {},
    {}, {}, {}, {}, {}
]);
